** ============================================================================
** 示例 Abaqus 输入文件
** 描述: 简单的立方体模型，用于测试 inp_io 库
** 作者: inp_io库
** 日期: 2025-06-09
** ============================================================================

*HEADING
Simple Cube Model for Testing INP Parser

** 节点定义
*NODE
1,  0.0,  0.0,  0.0
2,  1.0,  0.0,  0.0
3,  1.0,  1.0,  0.0
4,  0.0,  1.0,  0.0
5,  0.0,  0.0,  1.0
6,  1.0,  0.0,  1.0
7,  1.0,  1.0,  1.0
8,  0.0,  1.0,  1.0

** 单元定义
*ELEMENT, TYPE=C3D8, ELSET=CUBE_ELEMENTS
1, 1, 2, 3, 4, 5, 6, 7, 8

** 节点集合定义
*NSET, NSET=BOTTOM_NODES
1, 2, 3, 4

*NSET, NSET=TOP_NODES
5, 6, 7, 8

*NSET, NSET=ALL_NODES
1, 2, 3, 4, 5, 6, 7, 8

** 材料定义
*MATERIAL, NAME=STEEL
** 弹性常数
*ELASTIC, TYPE=ISOTROPIC
210000., 0.3
** 密度
*DENSITY
7850.,

*MATERIAL, NAME=ALUMINUM
*ELASTIC, TYPE=ISOTROPIC
70000., 0.33
*DENSITY
2700.,

** 截面属性
*SOLID SECTION, ELSET=CUBE_ELEMENTS, MATERIAL=STEEL

** 边界条件
*BOUNDARY
BOTTOM_NODES, 1, 3, 0.0

** 载荷定义
*CLOAD
TOP_NODES, 3, -1000.0

** 分析步
*STEP, NAME=STATIC_ANALYSIS
*STATIC
1.0, 1.0, 1E-5, 1.0

** 输出请求
*NODE PRINT, NSET=ALL_NODES
U, RF

*EL PRINT, ELSET=CUBE_ELEMENTS
S, E

*NODE FILE
U, RF

*EL FILE
S, E

*END STEP
